UNSATISFIABLE
UNSATISFIABLE
UNSATISFIABLE
UNSATISFIABLE
timeout
UNSATISFIABLE
UNSATISFIABLE
UNSATISFIABLE
UNSATISFIABLE
UNSATISFIABLE
UNSATISFIABLE
timeout
UNSATISFIABLE
UNSATISFIABLE
UNSATISFIABLE
UNSATISFIABLE
UNSATISFIABLE
UNSATISFIABLE
UNSATISFIABLE
timeout
UNSATISFIABLE
UNSATISFIABLE
UNSATISFIABLE
UNSATISFIABLE
UNSATISFIABLE
